/*********************************************
    * Lab01 - simple
    * Author: Coso
    * Creation Date: Mar, 2019
    *********************************************/
instance_name = "small_instance_13_simple";

d = 2;
r = 3;

SCj = [101 95];
Dk = [46 64 42];

Cjk = [[70 42 75]
 [70 57 59]];
